NAME: random-25-15007
TYPE: TSP
COMMENT: size=25 seed=15007
DIMENSION: 52
EDGE_WEIGHT_TYPE: EUC_2D
NODE_COORD_SECTION
+0 649 212
-0 649 212
+1 745 509
-1 673 157
+2 943 141
-2 595 437
+3 354 148
-3 15 518
+4 352 698
-4 689 343
+5 666 201
-5 777 38
+6 314 702
-6 833 935
+7 138 611
-7 12 396
+8 698 205
-8 908 956
+9 235 946
-9 869 893
+10 340 689
-10 683 17
+11 676 985
-11 330 65
+12 834 296
-12 213 728
+13 460 733
-13 699 224
+14 121 635
-14 42 845
+15 382 225
-15 534 979
+16 125 760
-16 721 289
+17 315 949
-17 528 559
+18 219 780
-18 52 755
+19 154 855
-19 59 657
+20 124 651
-20 417 350
+21 856 156
-21 679 586
+22 451 988
-22 463 249
+23 786 980
-23 374 297
+24 964 43
-24 539 257
+25 746 45
-25 527 424
PRECEDENCE_SECTION
+0 -0
+1 -1
+2 -2
+3 -3
+4 -4
+5 -5
+6 -6
+7 -7
+8 -8
+9 -9
+10 -10
+11 -11
+12 -12
+13 -13
+14 -14
+15 -15
+16 -16
+17 -17
+18 -18
+19 -19
+20 -20
+21 -21
+22 -22
+23 -23
+24 -24
+25 -25
EOF
